
  32    4
   1   1   1   1

   0   0   0   0   0  15 2 3 4 5 6 7 8 9 10 11 14 15 29 30 31 
   4   0   0   0   1   8   28   26   25   23   19   18   17   12
   2   1   0   1   1   5   25   20   17   16   12
   3   0   1   0   1   4   26   24   20   19
   4   0   0   0   1   4   24   21   17   16
   8   0   0   1   1   4   21   19   17   16
   6   0   0   1   0   3   21   18   17
   6   1   0   0   0   3   23   18   16
   9   1   0   1   1   2   27   19
   3   0   0   1   1   2   17   16
   5   0   1   1   0   1   13
   2   0   1   0   1   1   22
   4   1   1   1   1   1   16
   6   1   1   1   1   1   20
   10   0   1   0   0   1   18
   3   1   1   1   1   1   32
   5   0   0   0   1   1   32
   3   1   1   0   0   1   32
   9   0   1   0   1   1   32
   6   1   0   1   0   1   32
   6   1   0   1   1   1   32
   5   1   0   0   1   1   32
   10   1   1   0   0   1   32
   3   1   1   0   1   1   32
   7   0   1   1   1   1   32
   8   0   1   1   1   1   32
   1   0   1   0   1   1   32
   3   1   0   0   0   1   32
   8   0   1   0   1   1   32
   3   0   1   0   0   1   32
   8   1   0   0   1   1   32
   0   0   0   0   0   0 
